p cnf 1081
-16 -338
-17 -341
-18 -344
-19 -347
-20 -350
-21 -353
-22 -356
-23 -359
-24 -362
-25 -365
-26 -368
-27 -371
-28 -374
-29 -377
-30 -380
-31 381
-32 382
-33 383
-34 384
-35 385
-36 386
-37 387
-38 388
-39 389
-40 -17
-40 -18
17 18 40
-41 -19
-41 -20
19 20 41
-42 -21
-42 -22
21 22 42
-43 -23
-43 -24
23 24 43
-44 -25
-44 -26
25 26 44
-45 -27
-45 -28
27 28 45
-46 -29
-46 -30
29 30 46
-47 -31
-47 -32
31 32 47
-48 -33
-48 -34
33 34 48
-49 -35
-49 -36
35 36 49
-50 -37
-50 -38
37 38 50
-51 40
-51 41
-40 -41 51
-52 42
-52 43
-42 -43 52
-53 44
-53 45
-44 -45 53
-54 46
-54 47
-46 -47 54
-55 48
-55 49
-48 -49 55
-56 -39
-56 50
39 -50 56
-57 51
-57 52
-51 -52 57
-58 53
-58 54
-53 -54 58
-59 55
-59 56
-55 -56 59
-60 57
-60 58
-57 -58 60
-61 59
-61 60
-59 -60 61
-62 -16
-62 17
16 -17 62
-63 16
-63 -17
-16 17 63
-64 -62
-64 -63
62 63 64
-65 16
-65 17
-16 -17 65
-66 -16
-66 -64
16 64 66
-67 16
-67 64
-16 -64 67
-68 -66
-68 -67
66 67 68
-69 16
-69 -64
-16 64 69
-70 -65
-70 -69
65 69 70
-71 -17
-71 18
17 -18 71
-72 17
-72 -18
-17 18 72
-73 -71
-73 -72
71 72 73
-74 17
-74 18
-17 -18 74
-75 70
-75 -73
-70 73 75
-76 -70
-76 73
70 -73 76
-77 -75
-77 -76
75 76 77
-78 -70
-78 -73
70 73 78
-79 -74
-79 -78
74 78 79
-80 -18
-80 19
18 -19 80
-81 18
-81 -19
-18 19 81
-82 -80
-82 -81
80 81 82
-83 18
-83 19
-18 -19 83
-84 79
-84 -82
-79 82 84
-85 -79
-85 82
79 -82 85
-86 -84
-86 -85
84 85 86
-87 -79
-87 -82
79 82 87
-88 -83
-88 -87
83 87 88
-89 -19
-89 20
19 -20 89
-90 19
-90 -20
-19 20 90
-91 -89
-91 -90
89 90 91
-92 19
-92 20
-19 -20 92
-93 88
-93 -91
-88 91 93
-94 -88
-94 91
88 -91 94
-95 -93
-95 -94
93 94 95
-96 -88
-96 -91
88 91 96
-97 -92
-97 -96
92 96 97
-98 -20
-98 21
20 -21 98
-99 20
-99 -21
-20 21 99
-100 -98
-100 -99
98 99 100
-101 20
-101 21
-20 -21 101
-102 97
-102 -100
-97 100 102
-103 -97
-103 100
97 -100 103
-104 -102
-104 -103
102 103 104
-105 -97
-105 -100
97 100 105
-106 -101
-106 -105
101 105 106
-107 -21
-107 22
21 -22 107
-108 21
-108 -22
-21 22 108
-109 -107
-109 -108
107 108 109
-110 21
-110 22
-21 -22 110
-111 106
-111 -109
-106 109 111
-112 -106
-112 109
106 -109 112
-113 -111
-113 -112
111 112 113
-114 -106
-114 -109
106 109 114
-115 -110
-115 -114
110 114 115
-116 -22
-116 23
22 -23 116
-117 22
-117 -23
-22 23 117
-118 -116
-118 -117
116 117 118
-119 22
-119 23
-22 -23 119
-120 115
-120 -118
-115 118 120
-121 -115
-121 118
115 -118 121
-122 -120
-122 -121
120 121 122
-123 -115
-123 -118
115 118 123
-124 -119
-124 -123
119 123 124
-125 -23
-125 24
23 -24 125
-126 23
-126 -24
-23 24 126
-127 -125
-127 -126
125 126 127
-128 23
-128 24
-23 -24 128
-129 124
-129 -127
-124 127 129
-130 -124
-130 127
124 -127 130
-131 -129
-131 -130
129 130 131
-132 -124
-132 -127
124 127 132
-133 -128
-133 -132
128 132 133
-134 -24
-134 25
24 -25 134
-135 24
-135 -25
-24 25 135
-136 -134
-136 -135
134 135 136
-137 24
-137 25
-24 -25 137
-138 133
-138 -136
-133 136 138
-139 -133
-139 136
133 -136 139
-140 -138
-140 -139
138 139 140
-141 -133
-141 -136
133 136 141
-142 -137
-142 -141
137 141 142
-143 -25
-143 26
25 -26 143
-144 25
-144 -26
-25 26 144
-145 -143
-145 -144
143 144 145
-146 25
-146 26
-25 -26 146
-147 142
-147 -145
-142 145 147
-148 -142
-148 145
142 -145 148
-149 -147
-149 -148
147 148 149
-150 -142
-150 -145
142 145 150
-151 -146
-151 -150
146 150 151
-152 -26
-152 27
26 -27 152
-153 26
-153 -27
-26 27 153
-154 -152
-154 -153
152 153 154
-155 26
-155 27
-26 -27 155
-156 151
-156 -154
-151 154 156
-157 -151
-157 154
151 -154 157
-158 -156
-158 -157
156 157 158
-159 -151
-159 -154
151 154 159
-160 -155
-160 -159
155 159 160
-161 -27
-161 28
27 -28 161
-162 27
-162 -28
-27 28 162
-163 -161
-163 -162
161 162 163
-164 27
-164 28
-27 -28 164
-165 160
-165 -163
-160 163 165
-166 -160
-166 163
160 -163 166
-167 -165
-167 -166
165 166 167
-168 -160
-168 -163
160 163 168
-169 -164
-169 -168
164 168 169
-170 -28
-170 29
28 -29 170
-171 28
-171 -29
-28 29 171
-172 -170
-172 -171
170 171 172
-173 28
-173 29
-28 -29 173
-174 169
-174 -172
-169 172 174
-175 -169
-175 172
169 -172 175
-176 -174
-176 -175
174 175 176
-177 -169
-177 -172
169 172 177
-178 -173
-178 -177
173 177 178
-179 -29
-179 30
29 -30 179
-180 29
-180 -30
-29 30 180
-181 -179
-181 -180
179 180 181
-182 29
-182 30
-29 -30 182
-183 178
-183 -181
-178 181 183
-184 -178
-184 181
178 -181 184
-185 -183
-185 -184
183 184 185
-186 -178
-186 -181
178 181 186
-187 -182
-187 -186
182 186 187
-188 -30
-188 31
30 -31 188
-189 30
-189 -31
-30 31 189
-190 -188
-190 -189
188 189 190
-191 30
-191 31
-30 -31 191
-192 187
-192 -190
-187 190 192
-193 -187
-193 190
187 -190 193
-194 -192
-194 -193
192 193 194
-195 -187
-195 -190
187 190 195
-196 -191
-196 -195
191 195 196
-197 -31
-197 32
31 -32 197
-198 31
-198 -32
-31 32 198
-199 -197
-199 -198
197 198 199
-200 31
-200 32
-31 -32 200
-201 196
-201 -199
-196 199 201
-202 -196
-202 199
196 -199 202
-203 -201
-203 -202
201 202 203
-204 -196
-204 -199
196 199 204
-205 -200
-205 -204
200 204 205
-206 -32
-206 33
32 -33 206
-207 32
-207 -33
-32 33 207
-208 -206
-208 -207
206 207 208
-209 32
-209 33
-32 -33 209
-210 205
-210 -208
-205 208 210
-211 -205
-211 208
205 -208 211
-212 -210
-212 -211
210 211 212
-213 -205
-213 -208
205 208 213
-214 -209
-214 -213
209 213 214
-215 -33
-215 34
33 -34 215
-216 33
-216 -34
-33 34 216
-217 -215
-217 -216
215 216 217
-218 33
-218 34
-33 -34 218
-219 214
-219 -217
-214 217 219
-220 -214
-220 217
214 -217 220
-221 -219
-221 -220
219 220 221
-222 -214
-222 -217
214 217 222
-223 -218
-223 -222
218 222 223
-224 -34
-224 35
34 -35 224
-225 34
-225 -35
-34 35 225
-226 -224
-226 -225
224 225 226
-227 34
-227 35
-34 -35 227
-228 223
-228 -226
-223 226 228
-229 -223
-229 226
223 -226 229
-230 -228
-230 -229
228 229 230
-231 -223
-231 -226
223 226 231
-232 -227
-232 -231
227 231 232
-233 -35
-233 36
35 -36 233
-234 35
-234 -36
-35 36 234
-235 -233
-235 -234
233 234 235
-236 35
-236 36
-35 -36 236
-237 232
-237 -235
-232 235 237
-238 -232
-238 235
232 -235 238
-239 -237
-239 -238
237 238 239
-240 -232
-240 -235
232 235 240
-241 -236
-241 -240
236 240 241
-242 -36
-242 37
36 -37 242
-243 36
-243 -37
-36 37 243
-244 -242
-244 -243
242 243 244
-245 36
-245 37
-36 -37 245
-246 241
-246 -244
-241 244 246
-247 -241
-247 244
241 -244 247
-248 -246
-248 -247
246 247 248
-249 -241
-249 -244
241 244 249
-250 -245
-250 -249
245 249 250
-251 -37
-251 38
37 -38 251
-252 37
-252 -38
-37 38 252
-253 -251
-253 -252
251 252 253
-254 37
-254 38
-37 -38 254
-255 250
-255 -253
-250 253 255
-256 -250
-256 253
250 -253 256
-257 -255
-257 -256
255 256 257
-258 -250
-258 -253
250 253 258
-259 -254
-259 -258
254 258 259
-260 -38
-260 39
38 -39 260
-261 38
-261 -39
-38 39 261
-262 -260
-262 -261
260 261 262
-263 38
-263 39
-38 -39 263
-264 259
-264 -262
-259 262 264
-265 -259
-265 262
259 -262 265
-266 -264
-266 -265
264 265 266
-267 -259
-267 -262
259 262 267
-268 -263
-268 -267
263 267 268
-269 16
-269 -68
-16 68 269
-270 -16
-270 18
16 -18 270
-271 -269
-271 -270
269 270 271
-272 16
-272 -77
-16 77 272
-273 -16
-273 19
16 -19 273
-274 -272
-274 -273
272 273 274
-275 16
-275 -86
-16 86 275
-276 -16
-276 20
16 -20 276
-277 -275
-277 -276
275 276 277
-278 16
-278 -95
-16 95 278
-279 -16
-279 21
16 -21 279
-280 -278
-280 -279
278 279 280
-281 16
-281 -104
-16 104 281
-282 -16
-282 22
16 -22 282
-283 -281
-283 -282
281 282 283
-284 16
-284 -113
-16 113 284
-285 -16
-285 23
16 -23 285
-286 -284
-286 -285
284 285 286
-287 16
-287 -122
-16 122 287
-288 -16
-288 24
16 -24 288
-289 -287
-289 -288
287 288 289
-290 16
-290 -131
-16 131 290
-291 -16
-291 25
16 -25 291
-292 -290
-292 -291
290 291 292
-293 16
-293 -140
-16 140 293
-294 -16
-294 26
16 -26 294
-295 -293
-295 -294
293 294 295
-296 16
-296 -149
-16 149 296
-297 -16
-297 27
16 -27 297
-298 -296
-298 -297
296 297 298
-299 16
-299 -158
-16 158 299
-300 -16
-300 28
16 -28 300
-301 -299
-301 -300
299 300 301
-302 16
-302 -167
-16 167 302
-303 -16
-303 29
16 -29 303
-304 -302
-304 -303
302 303 304
-305 16
-305 -176
-16 176 305
-306 -16
-306 30
16 -30 306
-307 -305
-307 -306
305 306 307
-308 16
-308 -185
-16 185 308
-309 -16
-309 31
16 -31 309
-310 -308
-310 -309
308 309 310
-311 16
-311 -194
-16 194 311
-312 -16
-312 32
16 -32 312
-313 -311
-313 -312
311 312 313
-314 16
-314 -203
-16 203 314
-315 -16
-315 33
16 -33 315
-316 -314
-316 -315
314 315 316
-317 16
-317 -212
-16 212 317
-318 -16
-318 34
16 -34 318
-319 -317
-319 -318
317 318 319
-320 16
-320 -221
-16 221 320
-321 -16
-321 35
16 -35 321
-322 -320
-322 -321
320 321 322
-323 16
-323 -230
-16 230 323
-324 -16
-324 36
16 -36 324
-325 -323
-325 -324
323 324 325
-326 16
-326 -239
-16 239 326
-327 -16
-327 37
16 -37 327
-328 -326
-328 -327
326 327 328
-329 16
-329 -248
-16 248 329
-330 -16
-330 38
16 -38 330
-331 -329
-331 -330
329 330 331
-332 16
-332 -257
-16 257 332
-333 -16
-333 39
16 -39 333
-334 -332
-334 -333
332 333 334
-335 16
-335 -266
-16 266 335
-336 1
-336 61
-1 -61 336
-337 -61
-337 62
61 -62 337
-338 -336
-338 -337
336 337 338
-339 2
-339 61
-2 -61 339
-340 -61
-340 -271
61 271 340
-341 -339
-341 -340
339 340 341
-342 3
-342 61
-3 -61 342
-343 -61
-343 -274
61 274 343
-344 -342
-344 -343
342 343 344
-345 4
-345 61
-4 -61 345
-346 -61
-346 -277
61 277 346
-347 -345
-347 -346
345 346 347
-348 5
-348 61
-5 -61 348
-349 -61
-349 -280
61 280 349
-350 -348
-350 -349
348 349 350
-351 6
-351 61
-6 -61 351
-352 -61
-352 -283
61 283 352
-353 -351
-353 -352
351 352 353
-354 7
-354 61
-7 -61 354
-355 -61
-355 -286
61 286 355
-356 -354
-356 -355
354 355 356
-357 8
-357 61
-8 -61 357
-358 -61
-358 -289
61 289 358
-359 -357
-359 -358
357 358 359
-360 9
-360 61
-9 -61 360
-361 -61
-361 -292
61 292 361
-362 -360
-362 -361
360 361 362
-363 10
-363 61
-10 -61 363
-364 -61
-364 -295
61 295 364
-365 -363
-365 -364
363 364 365
-366 11
-366 61
-11 -61 366
-367 -61
-367 -298
61 298 367
-368 -366
-368 -367
366 367 368
-369 12
-369 61
-12 -61 369
-370 -61
-370 -301
61 301 370
-371 -369
-371 -370
369 370 371
-372 13
-372 61
-13 -61 372
-373 -61
-373 -304
61 304 373
-374 -372
-374 -373
372 373 374
-375 14
-375 61
-14 -61 375
-376 -61
-376 -307
61 307 376
-377 -375
-377 -376
375 376 377
-378 15
-378 61
-15 -61 378
-379 -61
-379 -310
61 310 379
-380 -378
-380 -379
378 379 380
-381 -61
-381 -313
61 313 381
-382 -61
-382 -316
61 316 382
-383 -61
-383 -319
61 319 383
-384 -61
-384 -322
61 322 384
-385 -61
-385 -325
61 325 385
-386 -61
-386 -328
61 328 386
-387 -61
-387 -331
61 331 387
-388 -61
-388 -334
61 334 388
-389 -61
-389 335
61 -335 389
-390 -39
-390 268
39 -268 390
-391 16
-391 -390
-16 390 391
391
